\ Model OA
\ LP format - for model browsing. Use MPS format to capture full model detail.
Minimize
  eta
Subject To
 initial_constr: eta >= 0
 R1: z_0_0 + z_0_1 + z_0_2 + z_0_3 + z_0_4 = 1
 R2: z_1_0 + z_1_1 + z_1_2 + z_1_3 + z_1_4 = 1
 R3: z_2_0 + z_2_1 + z_2_2 + z_2_3 + z_2_4 = 1
 R4: z_3_0 + z_3_1 + z_3_2 + z_3_3 + z_3_4 = 1
 R5: z_4_0 + z_4_1 + z_4_2 + z_4_3 + z_4_4 = 1
 R6: z_5_0 + z_5_1 + z_5_2 + z_5_3 + z_5_4 = 1
 R7: z_6_0 + z_6_1 + z_6_2 + z_6_3 + z_6_4 = 1
 R8: z_7_0 + z_7_1 + z_7_2 + z_7_3 + z_7_4 = 1
 R9: z_8_0 + z_8_1 + z_8_2 + z_8_3 + z_8_4 = 1
 R10: z_9_0 + z_9_1 + z_9_2 + z_9_3 + z_9_4 = 1
 R11: z_10_0 + z_10_1 + z_10_2 + z_10_3 + z_10_4 = 1
 R12: z_11_0 + z_11_1 + z_11_2 + z_11_3 + z_11_4 = 1
 R13: z_12_0 + z_12_1 + z_12_2 + z_12_3 + z_12_4 = 1
 R14: z_13_0 + z_13_1 + z_13_2 + z_13_3 + z_13_4 = 1
 R15: z_14_0 + z_14_1 + z_14_2 + z_14_3 + z_14_4 = 1
 R16: z_15_0 + z_15_1 + z_15_2 + z_15_3 + z_15_4 = 1
 R17: z_16_0 + z_16_1 + z_16_2 + z_16_3 + z_16_4 = 1
 R18: z_17_0 + z_17_1 + z_17_2 + z_17_3 + z_17_4 = 1
 R19: z_18_0 + z_18_1 + z_18_2 + z_18_3 + z_18_4 = 1
 R20: z_19_0 + z_19_1 + z_19_2 + z_19_3 + z_19_4 = 1
 R21: eta - 8000 x_0_0 - 6 x_0_1 - 1.6000009000000002e+07 z_0_0
   >= -3.2000024e+07
 R22: eta - 8000 x_1_0 - 6 x_1_1 - 1.6000009000000002e+07 z_0_1
   >= -3.2000024e+07
 R23: eta - 8000 x_2_0 - 6 x_2_1 - 1.6000009000000002e+07 z_0_2
   >= -3.2000024e+07
 R24: eta - 8000 x_3_0 - 6 x_3_1 - 1.6000009000000002e+07 z_0_3
   >= -3.2000024e+07
 R25: eta - 8000 x_4_0 - 6 x_4_1 - 1.6000009000000002e+07 z_0_4
   >= -3.2000024e+07
 R26: eta - 8000 x_0_0 - 2 x_0_1 - 1.6000009000000002e+07 z_1_0
   >= -3.2000014e+07
 R27: eta - 8000 x_1_0 - 2 x_1_1 - 1.6000009000000002e+07 z_1_1
   >= -3.2000014e+07
 R28: eta - 8000 x_2_0 - 2 x_2_1 - 1.6000009000000002e+07 z_1_2
   >= -3.2000014e+07
 R29: eta - 8000 x_3_0 - 2 x_3_1 - 1.6000009000000002e+07 z_1_3
   >= -3.2000014e+07
 R30: eta - 8000 x_4_0 - 2 x_4_1 - 1.6000009000000002e+07 z_1_4
   >= -3.2000014e+07
 R31: eta - 8000 x_0_0 + 2 x_0_1 - 1.6000009000000002e+07 z_2_0
   >= -3.2000004e+07
 R32: eta - 8000 x_1_0 + 2 x_1_1 - 1.6000009000000002e+07 z_2_1
   >= -3.2000004e+07
 R33: eta - 8000 x_2_0 + 2 x_2_1 - 1.6000009000000002e+07 z_2_2
   >= -3.2000004e+07
 R34: eta - 8000 x_3_0 + 2 x_3_1 - 1.6000009000000002e+07 z_2_3
   >= -3.2000004e+07
 R35: eta - 8000 x_4_0 + 2 x_4_1 - 1.6000009000000002e+07 z_2_4
   >= -3.2000004e+07
 R36: eta - 8000 x_0_0 + 6 x_0_1 - 1.6000009000000002e+07 z_3_0
   >= -3.1999994e+07
 R37: eta - 8000 x_1_0 + 6 x_1_1 - 1.6000009000000002e+07 z_3_1
   >= -3.1999994e+07
 R38: eta - 8000 x_2_0 + 6 x_2_1 - 1.6000009000000002e+07 z_3_2
   >= -3.1999994e+07
 R39: eta - 8000 x_3_0 + 6 x_3_1 - 1.6000009000000002e+07 z_3_3
   >= -3.1999994e+07
 R40: eta - 8000 x_4_0 + 6 x_4_1 - 1.6000009000000002e+07 z_3_4
   >= -3.1999994e+07
 R41: eta - 4000 x_0_0 - 6 x_0_1 - 1.6000009000000002e+07 z_4_0
   >= -2.4000024e+07
 R42: eta - 4000 x_1_0 - 6 x_1_1 - 1.6000009000000002e+07 z_4_1
   >= -2.4000024e+07
 R43: eta - 4000 x_2_0 - 6 x_2_1 - 1.6000009000000002e+07 z_4_2
   >= -2.4000024e+07
 R44: eta - 4000 x_3_0 - 6 x_3_1 - 1.6000009000000002e+07 z_4_3
   >= -2.4000024e+07
 R45: eta - 4000 x_4_0 - 6 x_4_1 - 1.6000009000000002e+07 z_4_4
   >= -2.4000024e+07
 R46: eta - 4000 x_0_0 - 2 x_0_1 - 1.6000009000000002e+07 z_5_0
   >= -2.4000014e+07
 R47: eta - 4000 x_1_0 - 2 x_1_1 - 1.6000009000000002e+07 z_5_1
   >= -2.4000014e+07
 R48: eta - 4000 x_2_0 - 2 x_2_1 - 1.6000009000000002e+07 z_5_2
   >= -2.4000014e+07
 R49: eta - 4000 x_3_0 - 2 x_3_1 - 1.6000009000000002e+07 z_5_3
   >= -2.4000014e+07
 R50: eta - 4000 x_4_0 - 2 x_4_1 - 1.6000009000000002e+07 z_5_4
   >= -2.4000014e+07
 R51: eta - 4000 x_0_0 + 2 x_0_1 - 1.6000009000000002e+07 z_6_0
   >= -2.4000004e+07
 R52: eta - 4000 x_1_0 + 2 x_1_1 - 1.6000009000000002e+07 z_6_1
   >= -2.4000004e+07
 R53: eta - 4000 x_2_0 + 2 x_2_1 - 1.6000009000000002e+07 z_6_2
   >= -2.4000004e+07
 R54: eta - 4000 x_3_0 + 2 x_3_1 - 1.6000009000000002e+07 z_6_3
   >= -2.4000004e+07
 R55: eta - 4000 x_4_0 + 2 x_4_1 - 1.6000009000000002e+07 z_6_4
   >= -2.4000004e+07
 R56: eta - 4000 x_0_0 + 6 x_0_1 - 1.6000009000000002e+07 z_7_0
   >= -2.3999994e+07
 R57: eta - 4000 x_1_0 + 6 x_1_1 - 1.6000009000000002e+07 z_7_1
   >= -2.3999994e+07
 R58: eta - 4000 x_2_0 + 6 x_2_1 - 1.6000009000000002e+07 z_7_2
   >= -2.3999994e+07
 R59: eta - 4000 x_3_0 + 6 x_3_1 - 1.6000009000000002e+07 z_7_3
   >= -2.3999994e+07
 R60: eta - 4000 x_4_0 + 6 x_4_1 - 1.6000009000000002e+07 z_7_4
   >= -2.3999994e+07
 R61: eta - 6 x_0_1 - 1.6000009000000002e+07 z_8_0
   >= -1.6000024000000002e+07
 R62: eta - 6 x_1_1 - 1.6000009000000002e+07 z_8_1
   >= -1.6000024000000002e+07
 R63: eta - 6 x_2_1 - 1.6000009000000002e+07 z_8_2
   >= -1.6000024000000002e+07
 R64: eta - 6 x_3_1 - 1.6000009000000002e+07 z_8_3
   >= -1.6000024000000002e+07
 R65: eta - 6 x_4_1 - 1.6000009000000002e+07 z_8_4
   >= -1.6000024000000002e+07
 R66: eta - 2 x_0_1 - 1.6000009000000002e+07 z_9_0
   >= -1.6000014000000002e+07
 R67: eta - 2 x_1_1 - 1.6000009000000002e+07 z_9_1
   >= -1.6000014000000002e+07
 R68: eta - 2 x_2_1 - 1.6000009000000002e+07 z_9_2
   >= -1.6000014000000002e+07
 R69: eta - 2 x_3_1 - 1.6000009000000002e+07 z_9_3
   >= -1.6000014000000002e+07
 R70: eta - 2 x_4_1 - 1.6000009000000002e+07 z_9_4
   >= -1.6000014000000002e+07
 R71: eta + 2 x_0_1 - 1.6000009000000002e+07 z_10_0
   >= -1.6000004000000002e+07
 R72: eta + 2 x_1_1 - 1.6000009000000002e+07 z_10_1
   >= -1.6000004000000002e+07
 R73: eta + 2 x_2_1 - 1.6000009000000002e+07 z_10_2
   >= -1.6000004000000002e+07
 R74: eta + 2 x_3_1 - 1.6000009000000002e+07 z_10_3
   >= -1.6000004000000002e+07
 R75: eta + 2 x_4_1 - 1.6000009000000002e+07 z_10_4
   >= -1.6000004000000002e+07
 R76: eta + 6 x_0_1 - 1.6000009000000002e+07 z_11_0
   >= -1.5999994000000002e+07
 R77: eta + 6 x_1_1 - 1.6000009000000002e+07 z_11_1
   >= -1.5999994000000002e+07
 R78: eta + 6 x_2_1 - 1.6000009000000002e+07 z_11_2
   >= -1.5999994000000002e+07
 R79: eta + 6 x_3_1 - 1.6000009000000002e+07 z_11_3
   >= -1.5999994000000002e+07
 R80: eta + 6 x_4_1 - 1.6000009000000002e+07 z_11_4
   >= -1.5999994000000002e+07
 R81: eta + 4000 x_0_0 - 6 x_0_1 - 1.6000009000000002e+07 z_12_0
   >= -8.0000240000000019e+06
 R82: eta + 4000 x_1_0 - 6 x_1_1 - 1.6000009000000002e+07 z_12_1
   >= -8.0000240000000019e+06
 R83: eta + 4000 x_2_0 - 6 x_2_1 - 1.6000009000000002e+07 z_12_2
   >= -8.0000240000000019e+06
 R84: eta + 4000 x_3_0 - 6 x_3_1 - 1.6000009000000002e+07 z_12_3
   >= -8.0000240000000019e+06
 R85: eta + 4000 x_4_0 - 6 x_4_1 - 1.6000009000000002e+07 z_12_4
   >= -8.0000240000000019e+06
 R86: eta + 4000 x_0_0 - 2 x_0_1 - 1.6000009000000002e+07 z_13_0
   >= -8.0000140000000019e+06
 R87: eta + 4000 x_1_0 - 2 x_1_1 - 1.6000009000000002e+07 z_13_1
   >= -8.0000140000000019e+06
 R88: eta + 4000 x_2_0 - 2 x_2_1 - 1.6000009000000002e+07 z_13_2
   >= -8.0000140000000019e+06
 R89: eta + 4000 x_3_0 - 2 x_3_1 - 1.6000009000000002e+07 z_13_3
   >= -8.0000140000000019e+06
 R90: eta + 4000 x_4_0 - 2 x_4_1 - 1.6000009000000002e+07 z_13_4
   >= -8.0000140000000019e+06
 R91: eta + 4000 x_0_0 + 2 x_0_1 - 1.6000009000000002e+07 z_14_0
   >= -8.0000040000000019e+06
 R92: eta + 4000 x_1_0 + 2 x_1_1 - 1.6000009000000002e+07 z_14_1
   >= -8.0000040000000019e+06
 R93: eta + 4000 x_2_0 + 2 x_2_1 - 1.6000009000000002e+07 z_14_2
   >= -8.0000040000000019e+06
 R94: eta + 4000 x_3_0 + 2 x_3_1 - 1.6000009000000002e+07 z_14_3
   >= -8.0000040000000019e+06
 R95: eta + 4000 x_4_0 + 2 x_4_1 - 1.6000009000000002e+07 z_14_4
   >= -8.0000040000000019e+06
 R96: eta + 4000 x_0_0 + 6 x_0_1 - 1.6000009000000002e+07 z_15_0
   >= -7.9999940000000019e+06
 R97: eta + 4000 x_1_0 + 6 x_1_1 - 1.6000009000000002e+07 z_15_1
   >= -7.9999940000000019e+06
 R98: eta + 4000 x_2_0 + 6 x_2_1 - 1.6000009000000002e+07 z_15_2
   >= -7.9999940000000019e+06
 R99: eta + 4000 x_3_0 + 6 x_3_1 - 1.6000009000000002e+07 z_15_3
   >= -7.9999940000000019e+06
 R100: eta + 4000 x_4_0 + 6 x_4_1 - 1.6000009000000002e+07 z_15_4
   >= -7.9999940000000019e+06
 R101: eta + 8000 x_0_0 - 6 x_0_1 - 1.6000009000000002e+07 z_16_0 >= -24
 R102: eta + 8000 x_1_0 - 6 x_1_1 - 1.6000009000000002e+07 z_16_1 >= -24
 R103: eta + 8000 x_2_0 - 6 x_2_1 - 1.6000009000000002e+07 z_16_2 >= -24
 R104: eta + 8000 x_3_0 - 6 x_3_1 - 1.6000009000000002e+07 z_16_3 >= -24
 R105: eta + 8000 x_4_0 - 6 x_4_1 - 1.6000009000000002e+07 z_16_4 >= -24
 R106: eta + 8000 x_0_0 - 2 x_0_1 - 1.6000009000000002e+07 z_17_0 >= -14
 R107: eta + 8000 x_1_0 - 2 x_1_1 - 1.6000009000000002e+07 z_17_1 >= -14
 R108: eta + 8000 x_2_0 - 2 x_2_1 - 1.6000009000000002e+07 z_17_2 >= -14
 R109: eta + 8000 x_3_0 - 2 x_3_1 - 1.6000009000000002e+07 z_17_3 >= -14
 R110: eta + 8000 x_4_0 - 2 x_4_1 - 1.6000009000000002e+07 z_17_4 >= -14
 R111: eta + 8000 x_0_0 + 2 x_0_1 - 1.6000009000000002e+07 z_18_0 >= -4
 R112: eta + 8000 x_1_0 + 2 x_1_1 - 1.6000009000000002e+07 z_18_1 >= -4
 R113: eta + 8000 x_2_0 + 2 x_2_1 - 1.6000009000000002e+07 z_18_2 >= -4
 R114: eta + 8000 x_3_0 + 2 x_3_1 - 1.6000009000000002e+07 z_18_3 >= -4
 R115: eta + 8000 x_4_0 + 2 x_4_1 - 1.6000009000000002e+07 z_18_4 >= -4
 R116: eta + 8000 x_0_0 + 6 x_0_1 - 1.6000009000000002e+07 z_19_0 >= 6
 R117: eta + 8000 x_1_0 + 6 x_1_1 - 1.6000009000000002e+07 z_19_1 >= 6
 R118: eta + 8000 x_2_0 + 6 x_2_1 - 1.6000009000000002e+07 z_19_2 >= 6
 R119: eta + 8000 x_3_0 + 6 x_3_1 - 1.6000009000000002e+07 z_19_3 >= 6
 R120: eta + 8000 x_4_0 + 6 x_4_1 - 1.6000009000000002e+07 z_19_4 >= 6
Bounds
Binaries
 z_0_0 z_1_0 z_2_0 z_3_0 z_4_0 z_5_0 z_6_0 z_7_0 z_8_0 z_9_0 z_10_0 z_11_0
 z_12_0 z_13_0 z_14_0 z_15_0 z_16_0 z_17_0 z_18_0 z_19_0 z_0_1 z_1_1 z_2_1
 z_3_1 z_4_1 z_5_1 z_6_1 z_7_1 z_8_1 z_9_1 z_10_1 z_11_1 z_12_1 z_13_1
 z_14_1 z_15_1 z_16_1 z_17_1 z_18_1 z_19_1 z_0_2 z_1_2 z_2_2 z_3_2 z_4_2
 z_5_2 z_6_2 z_7_2 z_8_2 z_9_2 z_10_2 z_11_2 z_12_2 z_13_2 z_14_2 z_15_2
 z_16_2 z_17_2 z_18_2 z_19_2 z_0_3 z_1_3 z_2_3 z_3_3 z_4_3 z_5_3 z_6_3
 z_7_3 z_8_3 z_9_3 z_10_3 z_11_3 z_12_3 z_13_3 z_14_3 z_15_3 z_16_3 z_17_3
 z_18_3 z_19_3 z_0_4 z_1_4 z_2_4 z_3_4 z_4_4 z_5_4 z_6_4 z_7_4 z_8_4 z_9_4
 z_10_4 z_11_4 z_12_4 z_13_4 z_14_4 z_15_4 z_16_4 z_17_4 z_18_4 z_19_4
End
